;; Original file: Fibonacci02_true-unreach-call_true-no-overflow_true-termination.c.smt2
(set-logic HORN)
(set-info :source "CHC Constraint Logic: QF_LIA
                   Contains non-linear Horn clauses: true")
(declare-fun fibonacci_fibonacciEXIT (Int Int Int Int Int Bool) Bool)
(declare-fun fibonacci_L17 (Int Int Int Int Int Bool) Bool)
(declare-fun ULTIMATE.start_ULTIMATE.startENTRY (Int Int Int Int Int Bool) Bool)
(declare-fun fibonacci_L15 (Int Int Int Int Int Bool) Bool)
(declare-fun fibonacci_fibonacciENTRY (Int Int Int Int Int Bool) Bool)
(declare-fun fibonacci_L20 (Int Int Int Int Int Bool) Bool)
(declare-fun fibonacci_fibonacciFINAL (Int Int Int Int Int Bool) Bool)
(declare-fun ULTIMATE.start_L31 (Int Int Int Int Int Bool) Bool)
(declare-fun ULTIMATE.start_ULTIMATE.startFINAL (Int Int Int Int Int Bool) Bool)
(declare-fun ULTIMATE.start_L25 (Int Int Int Int Int Bool) Bool)
(declare-fun ULTIMATE.start_L27 (Int Int Int Int Int Bool) Bool)
(declare-fun ULTIMATE.start_L28 (Int Int Int Int Int Bool) Bool)
(declare-fun fibonacci_L20-1 (Int Int Int Int Int Bool) Bool)
(declare-fun ULTIMATE.start_L27-1 (Int Int Int Int Int Bool) Bool)
(declare-fun ULTIMATE.start_ULTIMATE.startEXIT (Int Int Int Int Int Bool) Bool)
(declare-fun fibonacci_L20-2 (Int Int Int Int Int Bool) Bool)
(declare-fun fibonacci_L20-3 (Int Int Int Int Int Bool) Bool)
(assert (forall ((hhv_ULTIMATE.start_L27_0_Int Int) (hhv_ULTIMATE.start_L27_1_Int Int) (hhv_ULTIMATE.start_L27_2_Int Int) (hhv_ULTIMATE.start_L27_3_Int Int) (hhv_ULTIMATE.start_L27_4_Int Int) (hhv_ULTIMATE.start_L27_5_Bool Bool) (hbv_ULTIMATE.start_ULTIMATE.startENTRY_0_Int Int) (hbv_ULTIMATE.start_ULTIMATE.startENTRY_1_Int Int) (hbv_ULTIMATE.start_ULTIMATE.startENTRY_2_Int Int) (hbv_ULTIMATE.start_ULTIMATE.startENTRY_3_Int Int) (hbv_ULTIMATE.start_ULTIMATE.startENTRY_4_Int Int) (hbv_ULTIMATE.start_ULTIMATE.startENTRY_5_Bool Bool)) (=> (and (ULTIMATE.start_ULTIMATE.startENTRY hhv_ULTIMATE.start_L27_0_Int hbv_ULTIMATE.start_ULTIMATE.startENTRY_1_Int hbv_ULTIMATE.start_ULTIMATE.startENTRY_2_Int hbv_ULTIMATE.start_ULTIMATE.startENTRY_3_Int hbv_ULTIMATE.start_ULTIMATE.startENTRY_4_Int hhv_ULTIMATE.start_L27_5_Bool) (or (= hhv_ULTIMATE.start_L27_3_Int 9) hhv_ULTIMATE.start_L27_5_Bool)) (ULTIMATE.start_L27 hhv_ULTIMATE.start_L27_0_Int hhv_ULTIMATE.start_L27_1_Int hhv_ULTIMATE.start_L27_2_Int hhv_ULTIMATE.start_L27_3_Int hhv_ULTIMATE.start_L27_4_Int hhv_ULTIMATE.start_L27_5_Bool))))
(assert (forall ((hhv_ULTIMATE.start_L28_0_Int Int) (hhv_ULTIMATE.start_L28_1_Int Int) (hhv_ULTIMATE.start_L28_2_Int Int) (hhv_ULTIMATE.start_L28_3_Int Int) (hhv_ULTIMATE.start_L28_4_Int Int) (hhv_ULTIMATE.start_L28_5_Bool Bool) (hbv_ULTIMATE.start_L27-1_0_Int Int) (hbv_ULTIMATE.start_L27-1_1_Int Int) (hbv_ULTIMATE.start_L27-1_2_Int Int) (hbv_ULTIMATE.start_L27-1_3_Int Int) (hbv_ULTIMATE.start_L27-1_4_Int Int) (hbv_ULTIMATE.start_L27-1_5_Bool Bool)) (=> (and (or hhv_ULTIMATE.start_L28_5_Bool (and (= hhv_ULTIMATE.start_L28_4_Int hbv_ULTIMATE.start_L27-1_1_Int) (<= 0 (+ hbv_ULTIMATE.start_L27-1_1_Int 2147483648)) (<= hbv_ULTIMATE.start_L27-1_1_Int 2147483647))) (ULTIMATE.start_L27-1 hhv_ULTIMATE.start_L28_0_Int hbv_ULTIMATE.start_L27-1_1_Int hhv_ULTIMATE.start_L28_2_Int hhv_ULTIMATE.start_L28_3_Int hbv_ULTIMATE.start_L27-1_4_Int hhv_ULTIMATE.start_L28_5_Bool)) (ULTIMATE.start_L28 hhv_ULTIMATE.start_L28_0_Int hhv_ULTIMATE.start_L28_1_Int hhv_ULTIMATE.start_L28_2_Int hhv_ULTIMATE.start_L28_3_Int hhv_ULTIMATE.start_L28_4_Int hhv_ULTIMATE.start_L28_5_Bool))))
(assert (forall ((hhv_fibonacci_L15_0_Int Int) (hhv_fibonacci_L15_1_Int Int) (hhv_fibonacci_L15_2_Int Int) (hhv_fibonacci_L15_3_Int Int) (hhv_fibonacci_L15_4_Int Int) (hhv_fibonacci_L15_5_Bool Bool) (hbv_fibonacci_fibonacciENTRY_0_Int Int) (hbv_fibonacci_fibonacciENTRY_1_Int Int) (hbv_fibonacci_fibonacciENTRY_2_Int Int) (hbv_fibonacci_fibonacciENTRY_3_Int Int) (hbv_fibonacci_fibonacciENTRY_4_Int Int) (hbv_fibonacci_fibonacciENTRY_5_Bool Bool)) (=> (and (fibonacci_fibonacciENTRY hhv_fibonacci_L15_0_Int hbv_fibonacci_fibonacciENTRY_1_Int hhv_fibonacci_L15_2_Int hhv_fibonacci_L15_3_Int hhv_fibonacci_L15_4_Int hhv_fibonacci_L15_5_Bool) (or hhv_fibonacci_L15_5_Bool (= hhv_fibonacci_L15_1_Int hhv_fibonacci_L15_0_Int))) (fibonacci_L15 hhv_fibonacci_L15_0_Int hhv_fibonacci_L15_1_Int hhv_fibonacci_L15_2_Int hhv_fibonacci_L15_3_Int hhv_fibonacci_L15_4_Int hhv_fibonacci_L15_5_Bool))))
(assert (forall ((hhv_ULTIMATE.start_L25_0_Int Int) (hhv_ULTIMATE.start_L25_1_Int Int) (hhv_ULTIMATE.start_L25_2_Int Int) (hhv_ULTIMATE.start_L25_3_Int Int) (hhv_ULTIMATE.start_L25_4_Int Int) (hhv_ULTIMATE.start_L25_5_Bool Bool) (hbv_ULTIMATE.start_L28_0_Int Int) (hbv_ULTIMATE.start_L28_1_Int Int) (hbv_ULTIMATE.start_L28_2_Int Int) (hbv_ULTIMATE.start_L28_3_Int Int) (hbv_ULTIMATE.start_L28_4_Int Int) (hbv_ULTIMATE.start_L28_5_Bool Bool)) (=> (and (or hhv_ULTIMATE.start_L25_5_Bool (and (= hhv_ULTIMATE.start_L25_2_Int 0) (= hhv_ULTIMATE.start_L25_4_Int 34))) (ULTIMATE.start_L28 hhv_ULTIMATE.start_L25_0_Int hhv_ULTIMATE.start_L25_1_Int hbv_ULTIMATE.start_L28_2_Int hhv_ULTIMATE.start_L25_3_Int hhv_ULTIMATE.start_L25_4_Int hhv_ULTIMATE.start_L25_5_Bool)) (ULTIMATE.start_L25 hhv_ULTIMATE.start_L25_0_Int hhv_ULTIMATE.start_L25_1_Int hhv_ULTIMATE.start_L25_2_Int hhv_ULTIMATE.start_L25_3_Int hhv_ULTIMATE.start_L25_4_Int hhv_ULTIMATE.start_L25_5_Bool))))
(assert (forall ((hhv_ULTIMATE.start_L31_0_Int Int) (hhv_ULTIMATE.start_L31_1_Int Int) (hhv_ULTIMATE.start_L31_2_Int Int) (hhv_ULTIMATE.start_L31_3_Int Int) (hhv_ULTIMATE.start_L31_4_Int Int) (hhv_ULTIMATE.start_L31_5_Bool Bool) (hbv_ULTIMATE.start_L28_0_Int Int) (hbv_ULTIMATE.start_L28_1_Int Int) (hbv_ULTIMATE.start_L28_2_Int Int) (hbv_ULTIMATE.start_L28_3_Int Int) (hbv_ULTIMATE.start_L28_4_Int Int) (hbv_ULTIMATE.start_L28_5_Bool Bool)) (=> (and (ULTIMATE.start_L28 hhv_ULTIMATE.start_L31_0_Int hhv_ULTIMATE.start_L31_1_Int hhv_ULTIMATE.start_L31_2_Int hhv_ULTIMATE.start_L31_3_Int hhv_ULTIMATE.start_L31_4_Int hhv_ULTIMATE.start_L31_5_Bool) (or hhv_ULTIMATE.start_L31_5_Bool (not (= hhv_ULTIMATE.start_L31_4_Int 34)))) (ULTIMATE.start_L31 hhv_ULTIMATE.start_L31_0_Int hhv_ULTIMATE.start_L31_1_Int hhv_ULTIMATE.start_L31_2_Int hhv_ULTIMATE.start_L31_3_Int hhv_ULTIMATE.start_L31_4_Int hhv_ULTIMATE.start_L31_5_Bool))))
(assert (forall ((hhv_fibonacci_fibonacciFINAL_0_Int Int) (hhv_fibonacci_fibonacciFINAL_1_Int Int) (hhv_fibonacci_fibonacciFINAL_2_Int Int) (hhv_fibonacci_fibonacciFINAL_3_Int Int) (hhv_fibonacci_fibonacciFINAL_4_Int Int) (hhv_fibonacci_fibonacciFINAL_5_Bool Bool) (hbv_fibonacci_L15_0_Int Int) (hbv_fibonacci_L15_1_Int Int) (hbv_fibonacci_L15_2_Int Int) (hbv_fibonacci_L15_3_Int Int) (hbv_fibonacci_L15_4_Int Int) (hbv_fibonacci_L15_5_Bool Bool)) (=> (and (or hhv_fibonacci_fibonacciFINAL_5_Bool (and (= hhv_fibonacci_fibonacciFINAL_2_Int 0) (< hhv_fibonacci_fibonacciFINAL_1_Int 1))) (fibonacci_L15 hhv_fibonacci_fibonacciFINAL_0_Int hhv_fibonacci_fibonacciFINAL_1_Int hbv_fibonacci_L15_2_Int hhv_fibonacci_fibonacciFINAL_3_Int hhv_fibonacci_fibonacciFINAL_4_Int hhv_fibonacci_fibonacciFINAL_5_Bool)) (fibonacci_fibonacciFINAL hhv_fibonacci_fibonacciFINAL_0_Int hhv_fibonacci_fibonacciFINAL_1_Int hhv_fibonacci_fibonacciFINAL_2_Int hhv_fibonacci_fibonacciFINAL_3_Int hhv_fibonacci_fibonacciFINAL_4_Int hhv_fibonacci_fibonacciFINAL_5_Bool))))
(assert (forall ((hhv_fibonacci_L17_0_Int Int) (hhv_fibonacci_L17_1_Int Int) (hhv_fibonacci_L17_2_Int Int) (hhv_fibonacci_L17_3_Int Int) (hhv_fibonacci_L17_4_Int Int) (hhv_fibonacci_L17_5_Bool Bool) (hbv_fibonacci_L15_0_Int Int) (hbv_fibonacci_L15_1_Int Int) (hbv_fibonacci_L15_2_Int Int) (hbv_fibonacci_L15_3_Int Int) (hbv_fibonacci_L15_4_Int Int) (hbv_fibonacci_L15_5_Bool Bool)) (=> (and (fibonacci_L15 hhv_fibonacci_L17_0_Int hhv_fibonacci_L17_1_Int hhv_fibonacci_L17_2_Int hhv_fibonacci_L17_3_Int hhv_fibonacci_L17_4_Int hhv_fibonacci_L17_5_Bool) (or (not (< hhv_fibonacci_L17_1_Int 1)) hhv_fibonacci_L17_5_Bool)) (fibonacci_L17 hhv_fibonacci_L17_0_Int hhv_fibonacci_L17_1_Int hhv_fibonacci_L17_2_Int hhv_fibonacci_L17_3_Int hhv_fibonacci_L17_4_Int hhv_fibonacci_L17_5_Bool))))
(assert (forall ((hhv_ULTIMATE.start_ULTIMATE.startFINAL_0_Int Int) (hhv_ULTIMATE.start_ULTIMATE.startFINAL_1_Int Int) (hhv_ULTIMATE.start_ULTIMATE.startFINAL_2_Int Int) (hhv_ULTIMATE.start_ULTIMATE.startFINAL_3_Int Int) (hhv_ULTIMATE.start_ULTIMATE.startFINAL_4_Int Int) (hhv_ULTIMATE.start_ULTIMATE.startFINAL_5_Bool Bool) (hbv_ULTIMATE.start_L25_0_Int Int) (hbv_ULTIMATE.start_L25_1_Int Int) (hbv_ULTIMATE.start_L25_2_Int Int) (hbv_ULTIMATE.start_L25_3_Int Int) (hbv_ULTIMATE.start_L25_4_Int Int) (hbv_ULTIMATE.start_L25_5_Bool Bool)) (=> (and (or hhv_ULTIMATE.start_ULTIMATE.startFINAL_5_Bool (= hhv_ULTIMATE.start_ULTIMATE.startFINAL_0_Int hhv_ULTIMATE.start_ULTIMATE.startFINAL_2_Int)) (ULTIMATE.start_L25 hbv_ULTIMATE.start_L25_0_Int hhv_ULTIMATE.start_ULTIMATE.startFINAL_1_Int hhv_ULTIMATE.start_ULTIMATE.startFINAL_2_Int hhv_ULTIMATE.start_ULTIMATE.startFINAL_3_Int hhv_ULTIMATE.start_ULTIMATE.startFINAL_4_Int hhv_ULTIMATE.start_ULTIMATE.startFINAL_5_Bool)) (ULTIMATE.start_ULTIMATE.startFINAL hhv_ULTIMATE.start_ULTIMATE.startFINAL_0_Int hhv_ULTIMATE.start_ULTIMATE.startFINAL_1_Int hhv_ULTIMATE.start_ULTIMATE.startFINAL_2_Int hhv_ULTIMATE.start_ULTIMATE.startFINAL_3_Int hhv_ULTIMATE.start_ULTIMATE.startFINAL_4_Int hhv_ULTIMATE.start_ULTIMATE.startFINAL_5_Bool))))
(assert (forall ((hhv_ULTIMATE.start_ULTIMATE.startEXIT_0_Int Int) (hhv_ULTIMATE.start_ULTIMATE.startEXIT_1_Int Int) (hhv_ULTIMATE.start_ULTIMATE.startEXIT_2_Int Int) (hhv_ULTIMATE.start_ULTIMATE.startEXIT_3_Int Int) (hhv_ULTIMATE.start_ULTIMATE.startEXIT_4_Int Int) (hhv_ULTIMATE.start_ULTIMATE.startEXIT_5_Bool Bool) (hbv_ULTIMATE.start_L31_0_Int Int) (hbv_ULTIMATE.start_L31_1_Int Int) (hbv_ULTIMATE.start_L31_2_Int Int) (hbv_ULTIMATE.start_L31_3_Int Int) (hbv_ULTIMATE.start_L31_4_Int Int) (hbv_ULTIMATE.start_L31_5_Bool Bool)) (=> (and (ULTIMATE.start_L31 hhv_ULTIMATE.start_ULTIMATE.startEXIT_0_Int hhv_ULTIMATE.start_ULTIMATE.startEXIT_1_Int hhv_ULTIMATE.start_ULTIMATE.startEXIT_2_Int hhv_ULTIMATE.start_ULTIMATE.startEXIT_3_Int hhv_ULTIMATE.start_ULTIMATE.startEXIT_4_Int hbv_ULTIMATE.start_L31_5_Bool) hhv_ULTIMATE.start_ULTIMATE.startEXIT_5_Bool) (ULTIMATE.start_ULTIMATE.startEXIT hhv_ULTIMATE.start_ULTIMATE.startEXIT_0_Int hhv_ULTIMATE.start_ULTIMATE.startEXIT_1_Int hhv_ULTIMATE.start_ULTIMATE.startEXIT_2_Int hhv_ULTIMATE.start_ULTIMATE.startEXIT_3_Int hhv_ULTIMATE.start_ULTIMATE.startEXIT_4_Int hhv_ULTIMATE.start_ULTIMATE.startEXIT_5_Bool))))
(assert (forall ((hhv_ULTIMATE.start_L25_0_Int Int) (hhv_ULTIMATE.start_L25_1_Int Int) (hhv_ULTIMATE.start_L25_2_Int Int) (hhv_ULTIMATE.start_L25_3_Int Int) (hhv_ULTIMATE.start_L25_4_Int Int) (hhv_ULTIMATE.start_L25_5_Bool Bool) (hbv_ULTIMATE.start_L31_0_Int Int) (hbv_ULTIMATE.start_L31_1_Int Int) (hbv_ULTIMATE.start_L31_2_Int Int) (hbv_ULTIMATE.start_L31_3_Int Int) (hbv_ULTIMATE.start_L31_4_Int Int) (hbv_ULTIMATE.start_L31_5_Bool Bool)) (=> (and (ULTIMATE.start_L31 hhv_ULTIMATE.start_L25_0_Int hhv_ULTIMATE.start_L25_1_Int hhv_ULTIMATE.start_L25_2_Int hhv_ULTIMATE.start_L25_3_Int hhv_ULTIMATE.start_L25_4_Int hhv_ULTIMATE.start_L25_5_Bool) hhv_ULTIMATE.start_L25_5_Bool) (ULTIMATE.start_L25 hhv_ULTIMATE.start_L25_0_Int hhv_ULTIMATE.start_L25_1_Int hhv_ULTIMATE.start_L25_2_Int hhv_ULTIMATE.start_L25_3_Int hhv_ULTIMATE.start_L25_4_Int hhv_ULTIMATE.start_L25_5_Bool))))
(assert (forall ((hhv_fibonacci_fibonacciEXIT_0_Int Int) (hhv_fibonacci_fibonacciEXIT_1_Int Int) (hhv_fibonacci_fibonacciEXIT_2_Int Int) (hhv_fibonacci_fibonacciEXIT_3_Int Int) (hhv_fibonacci_fibonacciEXIT_4_Int Int) (hhv_fibonacci_fibonacciEXIT_5_Bool Bool) (hbv_fibonacci_fibonacciFINAL_0_Int Int) (hbv_fibonacci_fibonacciFINAL_1_Int Int) (hbv_fibonacci_fibonacciFINAL_2_Int Int) (hbv_fibonacci_fibonacciFINAL_3_Int Int) (hbv_fibonacci_fibonacciFINAL_4_Int Int) (hbv_fibonacci_fibonacciFINAL_5_Bool Bool)) (=> (fibonacci_fibonacciFINAL hhv_fibonacci_fibonacciEXIT_0_Int hhv_fibonacci_fibonacciEXIT_1_Int hhv_fibonacci_fibonacciEXIT_2_Int hhv_fibonacci_fibonacciEXIT_3_Int hhv_fibonacci_fibonacciEXIT_4_Int hhv_fibonacci_fibonacciEXIT_5_Bool) (fibonacci_fibonacciEXIT hhv_fibonacci_fibonacciEXIT_0_Int hhv_fibonacci_fibonacciEXIT_1_Int hhv_fibonacci_fibonacciEXIT_2_Int hhv_fibonacci_fibonacciEXIT_3_Int hhv_fibonacci_fibonacciEXIT_4_Int hhv_fibonacci_fibonacciEXIT_5_Bool))))
(assert (forall ((hhv_fibonacci_fibonacciFINAL_0_Int Int) (hhv_fibonacci_fibonacciFINAL_1_Int Int) (hhv_fibonacci_fibonacciFINAL_2_Int Int) (hhv_fibonacci_fibonacciFINAL_3_Int Int) (hhv_fibonacci_fibonacciFINAL_4_Int Int) (hhv_fibonacci_fibonacciFINAL_5_Bool Bool) (hbv_fibonacci_L17_0_Int Int) (hbv_fibonacci_L17_1_Int Int) (hbv_fibonacci_L17_2_Int Int) (hbv_fibonacci_L17_3_Int Int) (hbv_fibonacci_L17_4_Int Int) (hbv_fibonacci_L17_5_Bool Bool)) (=> (and (or (and (= hhv_fibonacci_fibonacciFINAL_2_Int 1) (= 1 hhv_fibonacci_fibonacciFINAL_1_Int)) hhv_fibonacci_fibonacciFINAL_5_Bool) (fibonacci_L17 hhv_fibonacci_fibonacciFINAL_0_Int hhv_fibonacci_fibonacciFINAL_1_Int hbv_fibonacci_L17_2_Int hhv_fibonacci_fibonacciFINAL_3_Int hhv_fibonacci_fibonacciFINAL_4_Int hhv_fibonacci_fibonacciFINAL_5_Bool)) (fibonacci_fibonacciFINAL hhv_fibonacci_fibonacciFINAL_0_Int hhv_fibonacci_fibonacciFINAL_1_Int hhv_fibonacci_fibonacciFINAL_2_Int hhv_fibonacci_fibonacciFINAL_3_Int hhv_fibonacci_fibonacciFINAL_4_Int hhv_fibonacci_fibonacciFINAL_5_Bool))))
(assert (forall ((hhv_fibonacci_L20_0_Int Int) (hhv_fibonacci_L20_1_Int Int) (hhv_fibonacci_L20_2_Int Int) (hhv_fibonacci_L20_3_Int Int) (hhv_fibonacci_L20_4_Int Int) (hhv_fibonacci_L20_5_Bool Bool) (hbv_fibonacci_L17_0_Int Int) (hbv_fibonacci_L17_1_Int Int) (hbv_fibonacci_L17_2_Int Int) (hbv_fibonacci_L17_3_Int Int) (hbv_fibonacci_L17_4_Int Int) (hbv_fibonacci_L17_5_Bool Bool)) (=> (and (or (not (= 1 hhv_fibonacci_L20_1_Int)) hhv_fibonacci_L20_5_Bool) (fibonacci_L17 hhv_fibonacci_L20_0_Int hhv_fibonacci_L20_1_Int hhv_fibonacci_L20_2_Int hhv_fibonacci_L20_3_Int hhv_fibonacci_L20_4_Int hhv_fibonacci_L20_5_Bool)) (fibonacci_L20 hhv_fibonacci_L20_0_Int hhv_fibonacci_L20_1_Int hhv_fibonacci_L20_2_Int hhv_fibonacci_L20_3_Int hhv_fibonacci_L20_4_Int hhv_fibonacci_L20_5_Bool))))
(assert (forall ((hhv_ULTIMATE.start_ULTIMATE.startEXIT_0_Int Int) (hhv_ULTIMATE.start_ULTIMATE.startEXIT_1_Int Int) (hhv_ULTIMATE.start_ULTIMATE.startEXIT_2_Int Int) (hhv_ULTIMATE.start_ULTIMATE.startEXIT_3_Int Int) (hhv_ULTIMATE.start_ULTIMATE.startEXIT_4_Int Int) (hhv_ULTIMATE.start_ULTIMATE.startEXIT_5_Bool Bool) (hbv_ULTIMATE.start_ULTIMATE.startFINAL_0_Int Int) (hbv_ULTIMATE.start_ULTIMATE.startFINAL_1_Int Int) (hbv_ULTIMATE.start_ULTIMATE.startFINAL_2_Int Int) (hbv_ULTIMATE.start_ULTIMATE.startFINAL_3_Int Int) (hbv_ULTIMATE.start_ULTIMATE.startFINAL_4_Int Int) (hbv_ULTIMATE.start_ULTIMATE.startFINAL_5_Bool Bool)) (=> (ULTIMATE.start_ULTIMATE.startFINAL hhv_ULTIMATE.start_ULTIMATE.startEXIT_0_Int hhv_ULTIMATE.start_ULTIMATE.startEXIT_1_Int hhv_ULTIMATE.start_ULTIMATE.startEXIT_2_Int hhv_ULTIMATE.start_ULTIMATE.startEXIT_3_Int hhv_ULTIMATE.start_ULTIMATE.startEXIT_4_Int hhv_ULTIMATE.start_ULTIMATE.startEXIT_5_Bool) (ULTIMATE.start_ULTIMATE.startEXIT hhv_ULTIMATE.start_ULTIMATE.startEXIT_0_Int hhv_ULTIMATE.start_ULTIMATE.startEXIT_1_Int hhv_ULTIMATE.start_ULTIMATE.startEXIT_2_Int hhv_ULTIMATE.start_ULTIMATE.startEXIT_3_Int hhv_ULTIMATE.start_ULTIMATE.startEXIT_4_Int hhv_ULTIMATE.start_ULTIMATE.startEXIT_5_Bool))))
(assert (forall ((hhv_fibonacci_L20-1_0_Int Int) (hhv_fibonacci_L20-1_1_Int Int) (hhv_fibonacci_L20-1_2_Int Int) (hhv_fibonacci_L20-1_3_Int Int) (hhv_fibonacci_L20-1_4_Int Int) (hhv_fibonacci_L20-1_5_Bool Bool) (hbv_fibonacci_L20_0_Int Int) (hbv_fibonacci_L20_1_Int Int) (hbv_fibonacci_L20_2_Int Int) (hbv_fibonacci_L20_3_Int Int) (hbv_fibonacci_L20_4_Int Int) (hbv_fibonacci_L20_5_Bool Bool) (hbv_fibonacci_fibonacciEXIT_0_Int Int) (hbv_fibonacci_fibonacciEXIT_1_Int Int) (hbv_fibonacci_fibonacciEXIT_2_Int Int) (hbv_fibonacci_fibonacciEXIT_3_Int Int) (hbv_fibonacci_fibonacciEXIT_4_Int Int) (hbv_fibonacci_fibonacciEXIT_5_Bool Bool)) (=> (and (fibonacci_L20 hhv_fibonacci_L20-1_0_Int hhv_fibonacci_L20-1_1_Int hhv_fibonacci_L20-1_2_Int hbv_fibonacci_L20_3_Int hhv_fibonacci_L20-1_4_Int hbv_fibonacci_L20_5_Bool) (= hhv_fibonacci_L20-1_3_Int hbv_fibonacci_fibonacciEXIT_2_Int) (fibonacci_fibonacciEXIT hbv_fibonacci_fibonacciEXIT_0_Int hbv_fibonacci_fibonacciEXIT_1_Int hbv_fibonacci_fibonacciEXIT_2_Int hbv_fibonacci_fibonacciEXIT_3_Int hbv_fibonacci_fibonacciEXIT_4_Int hbv_fibonacci_fibonacciEXIT_5_Bool) (= hbv_fibonacci_fibonacciEXIT_0_Int (+ hhv_fibonacci_L20-1_1_Int (- 1))) (let ((.cse0 (or hbv_fibonacci_fibonacciEXIT_5_Bool hbv_fibonacci_L20_5_Bool))) (or (and hhv_fibonacci_L20-1_5_Bool .cse0) (and (not .cse0) (not hhv_fibonacci_L20-1_5_Bool))))) (fibonacci_L20-1 hhv_fibonacci_L20-1_0_Int hhv_fibonacci_L20-1_1_Int hhv_fibonacci_L20-1_2_Int hhv_fibonacci_L20-1_3_Int hhv_fibonacci_L20-1_4_Int hhv_fibonacci_L20-1_5_Bool))))
(assert (forall ((hhv_fibonacci_L20-3_0_Int Int) (hhv_fibonacci_L20-3_1_Int Int) (hhv_fibonacci_L20-3_2_Int Int) (hhv_fibonacci_L20-3_3_Int Int) (hhv_fibonacci_L20-3_4_Int Int) (hhv_fibonacci_L20-3_5_Bool Bool) (hbv_fibonacci_L20-2_0_Int Int) (hbv_fibonacci_L20-2_1_Int Int) (hbv_fibonacci_L20-2_2_Int Int) (hbv_fibonacci_L20-2_3_Int Int) (hbv_fibonacci_L20-2_4_Int Int) (hbv_fibonacci_L20-2_5_Bool Bool) (hbv_fibonacci_fibonacciEXIT_0_Int Int) (hbv_fibonacci_fibonacciEXIT_1_Int Int) (hbv_fibonacci_fibonacciEXIT_2_Int Int) (hbv_fibonacci_fibonacciEXIT_3_Int Int) (hbv_fibonacci_fibonacciEXIT_4_Int Int) (hbv_fibonacci_fibonacciEXIT_5_Bool Bool)) (=> (and (fibonacci_L20-2 hhv_fibonacci_L20-3_0_Int hhv_fibonacci_L20-3_1_Int hhv_fibonacci_L20-3_2_Int hhv_fibonacci_L20-3_3_Int hbv_fibonacci_L20-2_4_Int hbv_fibonacci_L20-2_5_Bool) (fibonacci_fibonacciEXIT hbv_fibonacci_fibonacciEXIT_0_Int hbv_fibonacci_fibonacciEXIT_1_Int hbv_fibonacci_fibonacciEXIT_2_Int hbv_fibonacci_fibonacciEXIT_3_Int hbv_fibonacci_fibonacciEXIT_4_Int hbv_fibonacci_fibonacciEXIT_5_Bool) (= hbv_fibonacci_fibonacciEXIT_0_Int (+ hhv_fibonacci_L20-3_1_Int (- 2))) (let ((.cse0 (or hbv_fibonacci_fibonacciEXIT_5_Bool hbv_fibonacci_L20-2_5_Bool))) (or (and hhv_fibonacci_L20-3_5_Bool .cse0) (and (not .cse0) (not hhv_fibonacci_L20-3_5_Bool)))) (= hhv_fibonacci_L20-3_4_Int hbv_fibonacci_fibonacciEXIT_2_Int)) (fibonacci_L20-3 hhv_fibonacci_L20-3_0_Int hhv_fibonacci_L20-3_1_Int hhv_fibonacci_L20-3_2_Int hhv_fibonacci_L20-3_3_Int hhv_fibonacci_L20-3_4_Int hhv_fibonacci_L20-3_5_Bool))))
(assert (forall ((hhv_ULTIMATE.start_L27-1_0_Int Int) (hhv_ULTIMATE.start_L27-1_1_Int Int) (hhv_ULTIMATE.start_L27-1_2_Int Int) (hhv_ULTIMATE.start_L27-1_3_Int Int) (hhv_ULTIMATE.start_L27-1_4_Int Int) (hhv_ULTIMATE.start_L27-1_5_Bool Bool) (hbv_ULTIMATE.start_L27_0_Int Int) (hbv_ULTIMATE.start_L27_1_Int Int) (hbv_ULTIMATE.start_L27_2_Int Int) (hbv_ULTIMATE.start_L27_3_Int Int) (hbv_ULTIMATE.start_L27_4_Int Int) (hbv_ULTIMATE.start_L27_5_Bool Bool) (hbv_fibonacci_fibonacciEXIT_0_Int Int) (hbv_fibonacci_fibonacciEXIT_1_Int Int) (hbv_fibonacci_fibonacciEXIT_2_Int Int) (hbv_fibonacci_fibonacciEXIT_3_Int Int) (hbv_fibonacci_fibonacciEXIT_4_Int Int) (hbv_fibonacci_fibonacciEXIT_5_Bool Bool)) (=> (and (let ((.cse0 (or hbv_fibonacci_fibonacciEXIT_5_Bool hbv_ULTIMATE.start_L27_5_Bool))) (or (and hhv_ULTIMATE.start_L27-1_5_Bool .cse0) (and (not .cse0) (not hhv_ULTIMATE.start_L27-1_5_Bool)))) (= hbv_fibonacci_fibonacciEXIT_0_Int hhv_ULTIMATE.start_L27-1_3_Int) (= hhv_ULTIMATE.start_L27-1_1_Int hbv_fibonacci_fibonacciEXIT_2_Int) (fibonacci_fibonacciEXIT hbv_fibonacci_fibonacciEXIT_0_Int hbv_fibonacci_fibonacciEXIT_1_Int hbv_fibonacci_fibonacciEXIT_2_Int hbv_fibonacci_fibonacciEXIT_3_Int hbv_fibonacci_fibonacciEXIT_4_Int hbv_fibonacci_fibonacciEXIT_5_Bool) (ULTIMATE.start_L27 hhv_ULTIMATE.start_L27-1_0_Int hbv_ULTIMATE.start_L27_1_Int hhv_ULTIMATE.start_L27-1_2_Int hhv_ULTIMATE.start_L27-1_3_Int hhv_ULTIMATE.start_L27-1_4_Int hbv_ULTIMATE.start_L27_5_Bool)) (ULTIMATE.start_L27-1 hhv_ULTIMATE.start_L27-1_0_Int hhv_ULTIMATE.start_L27-1_1_Int hhv_ULTIMATE.start_L27-1_2_Int hhv_ULTIMATE.start_L27-1_3_Int hhv_ULTIMATE.start_L27-1_4_Int hhv_ULTIMATE.start_L27-1_5_Bool))))
(assert (forall ((hhv_fibonacci_L20-2_0_Int Int) (hhv_fibonacci_L20-2_1_Int Int) (hhv_fibonacci_L20-2_2_Int Int) (hhv_fibonacci_L20-2_3_Int Int) (hhv_fibonacci_L20-2_4_Int Int) (hhv_fibonacci_L20-2_5_Bool Bool) (hbv_fibonacci_L20-1_0_Int Int) (hbv_fibonacci_L20-1_1_Int Int) (hbv_fibonacci_L20-1_2_Int Int) (hbv_fibonacci_L20-1_3_Int Int) (hbv_fibonacci_L20-1_4_Int Int) (hbv_fibonacci_L20-1_5_Bool Bool)) (=> (and (fibonacci_L20-1 hhv_fibonacci_L20-2_0_Int hhv_fibonacci_L20-2_1_Int hhv_fibonacci_L20-2_2_Int hhv_fibonacci_L20-2_3_Int hhv_fibonacci_L20-2_4_Int hhv_fibonacci_L20-2_5_Bool) (or hhv_fibonacci_L20-2_5_Bool (and (<= hhv_fibonacci_L20-2_3_Int 2147483647) (<= 0 (+ hhv_fibonacci_L20-2_3_Int 2147483648))))) (fibonacci_L20-2 hhv_fibonacci_L20-2_0_Int hhv_fibonacci_L20-2_1_Int hhv_fibonacci_L20-2_2_Int hhv_fibonacci_L20-2_3_Int hhv_fibonacci_L20-2_4_Int hhv_fibonacci_L20-2_5_Bool))))
(assert (forall ((hhv_fibonacci_fibonacciFINAL_0_Int Int) (hhv_fibonacci_fibonacciFINAL_1_Int Int) (hhv_fibonacci_fibonacciFINAL_2_Int Int) (hhv_fibonacci_fibonacciFINAL_3_Int Int) (hhv_fibonacci_fibonacciFINAL_4_Int Int) (hhv_fibonacci_fibonacciFINAL_5_Bool Bool) (hbv_fibonacci_L20-3_0_Int Int) (hbv_fibonacci_L20-3_1_Int Int) (hbv_fibonacci_L20-3_2_Int Int) (hbv_fibonacci_L20-3_3_Int Int) (hbv_fibonacci_L20-3_4_Int Int) (hbv_fibonacci_L20-3_5_Bool Bool)) (=> (and (or hhv_fibonacci_fibonacciFINAL_5_Bool (and (= hhv_fibonacci_fibonacciFINAL_2_Int (+ hbv_fibonacci_L20-3_3_Int hbv_fibonacci_L20-3_4_Int)) (<= hbv_fibonacci_L20-3_4_Int 2147483647) (<= 0 (+ hbv_fibonacci_L20-3_4_Int 2147483648)))) (fibonacci_L20-3 hhv_fibonacci_fibonacciFINAL_0_Int hhv_fibonacci_fibonacciFINAL_1_Int hbv_fibonacci_L20-3_2_Int hbv_fibonacci_L20-3_3_Int hbv_fibonacci_L20-3_4_Int hhv_fibonacci_fibonacciFINAL_5_Bool)) (fibonacci_fibonacciFINAL hhv_fibonacci_fibonacciFINAL_0_Int hhv_fibonacci_fibonacciFINAL_1_Int hhv_fibonacci_fibonacciFINAL_2_Int hhv_fibonacci_fibonacciFINAL_3_Int hhv_fibonacci_fibonacciFINAL_4_Int hhv_fibonacci_fibonacciFINAL_5_Bool))))
(assert (forall ((hhv_fibonacci_fibonacciENTRY_0_Int Int) (hhv_fibonacci_fibonacciENTRY_1_Int Int) (hhv_fibonacci_fibonacciENTRY_2_Int Int) (hhv_fibonacci_fibonacciENTRY_3_Int Int) (hhv_fibonacci_fibonacciENTRY_4_Int Int) (hhv_fibonacci_fibonacciENTRY_5_Bool Bool)) (=> (not hhv_fibonacci_fibonacciENTRY_5_Bool) (fibonacci_fibonacciENTRY hhv_fibonacci_fibonacciENTRY_0_Int hhv_fibonacci_fibonacciENTRY_1_Int hhv_fibonacci_fibonacciENTRY_2_Int hhv_fibonacci_fibonacciENTRY_3_Int hhv_fibonacci_fibonacciENTRY_4_Int hhv_fibonacci_fibonacciENTRY_5_Bool))))
(assert (forall ((hhv_ULTIMATE.start_ULTIMATE.startENTRY_0_Int Int) (hhv_ULTIMATE.start_ULTIMATE.startENTRY_1_Int Int) (hhv_ULTIMATE.start_ULTIMATE.startENTRY_2_Int Int) (hhv_ULTIMATE.start_ULTIMATE.startENTRY_3_Int Int) (hhv_ULTIMATE.start_ULTIMATE.startENTRY_4_Int Int) (hhv_ULTIMATE.start_ULTIMATE.startENTRY_5_Bool Bool)) (=> (not hhv_ULTIMATE.start_ULTIMATE.startENTRY_5_Bool) (ULTIMATE.start_ULTIMATE.startENTRY hhv_ULTIMATE.start_ULTIMATE.startENTRY_0_Int hhv_ULTIMATE.start_ULTIMATE.startENTRY_1_Int hhv_ULTIMATE.start_ULTIMATE.startENTRY_2_Int hhv_ULTIMATE.start_ULTIMATE.startENTRY_3_Int hhv_ULTIMATE.start_ULTIMATE.startENTRY_4_Int hhv_ULTIMATE.start_ULTIMATE.startENTRY_5_Bool))))
(assert (forall ((hbv_ULTIMATE.start_ULTIMATE.startEXIT_0_Int Int) (hbv_ULTIMATE.start_ULTIMATE.startEXIT_1_Int Int) (hbv_ULTIMATE.start_ULTIMATE.startEXIT_2_Int Int) (hbv_ULTIMATE.start_ULTIMATE.startEXIT_3_Int Int) (hbv_ULTIMATE.start_ULTIMATE.startEXIT_4_Int Int) (hbv_ULTIMATE.start_ULTIMATE.startEXIT_5_Bool Bool)) (=> (and hbv_ULTIMATE.start_ULTIMATE.startEXIT_5_Bool (ULTIMATE.start_ULTIMATE.startEXIT hbv_ULTIMATE.start_ULTIMATE.startEXIT_0_Int hbv_ULTIMATE.start_ULTIMATE.startEXIT_1_Int hbv_ULTIMATE.start_ULTIMATE.startEXIT_2_Int hbv_ULTIMATE.start_ULTIMATE.startEXIT_3_Int hbv_ULTIMATE.start_ULTIMATE.startEXIT_4_Int hbv_ULTIMATE.start_ULTIMATE.startEXIT_5_Bool)) false)))
(check-sat)
